results/real/sos1/mar_3_365.in
Version identifier: 22.1.0.0 | 2022-03-09 | 1a383f8ce
CPXPARAM_Threads                                 1
CPXPARAM_MIP_Strategy_VariableSelect             3
CPXPARAM_TimeLimit                               599.99990621999996
1 of 1 MIP starts provided solutions.
MIP start 'm1' defined initial solution with objective 253.0000.
Tried aggregator 2 times.
MIP Presolve eliminated 408 rows and 1096 columns.
MIP Presolve added 36 rows and 9 columns.
MIP Presolve modified 38 coefficients.
Aggregator did 9 substitutions.
Reduced MIP has 2187 rows, 3650 columns, and 97828 nonzeros.
Reduced MIP has 3650 binaries, 0 generals, 0 SOSs, and 0 indicators.
Presolve time = 0.15 sec. (191.67 ticks)
Probing time = 0.02 sec. (14.07 ticks)
Tried aggregator 1 time.
Detecting symmetries...
MIP Presolve modified 10 coefficients.
Reduced MIP has 2187 rows, 3650 columns, and 97963 nonzeros.
Reduced MIP has 3650 binaries, 0 generals, 0 SOSs, and 0 indicators.
Presolve time = 0.10 sec. (146.39 ticks)
Probing time = 0.02 sec. (14.08 ticks)
Clique table members: 1455.
MIP emphasis: balance optimality and feasibility.
MIP search method: dynamic search.
Parallel mode: none, using 1 thread.
Root relaxation solution time = 0.09 sec. (89.61 ticks)

        Nodes                                         Cuts/
   Node  Left     Objective  IInf  Best Integer    Best Bound    ItCnt     Gap

*     0+    0                          253.0000    66795.0000              --- 
      0     0      365.0000   250      253.0000      365.0000     1073   44.27%
*     0+    0                          365.0000      365.0000             0.00%
      0     0        cutoff            365.0000      365.0000     1073    0.00%
Elapsed time = 0.68 sec. (724.25 ticks, tree = 0.01 MB, solutions = 2)

Root node processing (before b&c):
  Real time             =    0.68 sec. (724.44 ticks)
Sequential b&c:
  Real time             =    0.00 sec. (0.00 ticks)
                          ------------
Total (root+branch&cut) =    0.68 sec. (724.44 ticks)
Primal:	365
Dual:	365
Status:	Optimal
Time:	0.72
Sequence:
	3
	4
	1
	0
	5
	9
	1
	4
	7
	0
	9
	9
	5
	9
	7
	9
	9
	5
	9
	0
	7
	9
	5
	0
	4
	5
	0
	7
	9
	0
	9
	9
	9
	7
	9
	9
	5
	4
	9
	7
	9
	5
	4
	9
	5
	9
	4
	7
	9
	1
	9
	4
	9
	9
	7
	4
	1
	4
	5
	0
	7
	9
	9
	0
	5
	9
	1
	9
	7
	4
	9
	0
	4
	9
	7
	9
	9
	9
	4
	9
	7
	9
	9
	9
	4
	9
	7
	9
	5
	9
	5
	2
	7
	9
	0
	5
	4
	0
	7
	9
	4
	5
	0
	4
	7
	0
	4
	4
	0
	5
	9
	7
	4
	0
	4
	4
	0
	4
	3
	4
	4
	0
	5
	4
	0
	7
	9
	4
	4
	0
	5
	9
	7
	4
	1
	0
	1
	4
	7
	0
	4
	5
	9
	4
	3
	4
	0
	5
	9
	4
	5
	9
	7
	0
	4
	9
	4
	5
	0
	7
	9
	4
	0
	5
	4
	0
	4
	7
	0
	5
	4
	0
	4
	3
	4
	4
	0
	5
	9
	7
	0
	4
	5
	0
	4
	7
	0
	5
	9
	4
	9
	7
	9
	9
	5
	0
	9
	9
	7
	0
	1
	4
	5
	9
	9
	7
	9
	9
	9
	0
	9
	9
	7
	9
	5
	0
	9
	9
	7
	0
	5
	9
	9
	9
	7
	9
	5
	0
	1
	9
	3
	0
	9
	5
	9
	9
	7
	9
	9
	1
	9
	0
	7
	9
	0
	1
	4
	0
	7
	9
	0
	1
	9
	4
	7
	9
	4
	9
	5
	0
	7
	9
	5
	9
	0
	9
	7
	0
	9
	9
	0
	4
	4
	0
	7
	4
	0
	4
	4
	9
	0
	7
	9
	0
	9
	9
	9
	7
	9
	5
	9
	0
	9
	7
	0
	5
	9
	5
	0
	7
	9
	4
	0
	4
	1
	0
	4
	7
	9
	4
	0
	4
	4
	0
	7
	9
	5
	9
	5
	0
	7
	4
	0
	4
	4
	9
	4
	4
	9
	4
	4
	11
	4
	4
	0
	4
	4
	3
	4
	4
	9
	4
	4
	3
	4
	4
	9
	4
	1
	4
	7
	9
	9
	0
	4
	5
	0
	7
	4
	0
	5
	4
	1
	4
	7
