results/real/sos1/mar_3_365.out
Version identifier: 22.1.1.0 | 2022-11-28 | 9160aff4d
CPXPARAM_Threads                                 1
CPXPARAM_MIP_Strategy_VariableSelect             3
CPXPARAM_TimeLimit                               599.99999368600004
1 of 1 MIP starts provided solutions.
MIP start 'm1' defined initial solution with objective 106.0000.
Tried aggregator 1 time.
MIP Presolve eliminated 380 rows and 1095 columns.
MIP Presolve modified 28 coefficients.
Reduced MIP has 1823 rows, 3650 columns, and 94160 nonzeros.
Reduced MIP has 3650 binaries, 0 generals, 0 SOSs, and 0 indicators.
Presolve time = 0.08 sec. (148.26 ticks)
Probing time = 0.01 sec. (14.07 ticks)
Tried aggregator 1 time.
Detecting symmetries...
MIP Presolve modified 8 coefficients.
Reduced MIP has 1823 rows, 3650 columns, and 94284 nonzeros.
Reduced MIP has 3650 binaries, 0 generals, 0 SOSs, and 0 indicators.
Presolve time = 0.05 sec. (140.69 ticks)
Probing time = 0.01 sec. (14.08 ticks)
Clique table members: 1091.
MIP emphasis: balance optimality and feasibility.
MIP search method: dynamic search.
Parallel mode: none, using 1 thread.
Root relaxation solution time = 0.04 sec. (80.60 ticks)

        Nodes                                         Cuts/
   Node  Left     Objective  IInf  Best Integer    Best Bound    ItCnt     Gap

*     0+    0                          106.0000    66795.0000              --- 
      0     0      365.0000   160      106.0000      365.0000      949  244.34%
*     0+    0                          365.0000      365.0000             0.00%
      0     0        cutoff            365.0000      365.0000      949    0.00%
Elapsed time = 0.33 sec. (607.87 ticks, tree = 0.01 MB, solutions = 2)

Root node processing (before b&c):
  Real time             =    0.33 sec. (608.05 ticks)
Sequential b&c:
  Real time             =    0.00 sec. (0.00 ticks)
                          ------------
Total (root+branch&cut) =    0.33 sec. (608.05 ticks)
Primal:	365
Dual:	365
Status:	Optimal
Time:	0.33
Sequence:
	1
	7
	4
	9
	0
	9
	9
	9
	9
	7
	0
	9
	4
	9
	4
	7
	9
	4
	0
	5
	9
	7
	4
	9
	0
	9
	9
	0
	9
	7
	0
	4
	5
	9
	0
	4
	7
	0
	9
	4
	0
	9
	9
	7
	4
	0
	9
	9
	9
	7
	4
	9
	4
	9
	9
	7
	9
	0
	9
	1
	9
	7
	4
	9
	5
	4
	0
	7
	9
	5
	9
	4
	0
	9
	7
	0
	9
	4
	9
	5
	9
	7
	9
	9
	5
	9
	9
	7
	9
	9
	5
	5
	9
	3
	4
	9
	4
	0
	5
	9
	4
	7
	1
	4
	4
	0
	4
	5
	3
	4
	0
	4
	4
	0
	7
	4
	0
	1
	5
	9
	1
	9
	7
	1
	1
	4
	0
	4
	4
	0
	7
	4
	0
	5
	1
	9
	7
	0
	9
	4
	4
	9
	7
	9
	4
	9
	4
	0
	7
	9
	9
	4
	4
	9
	7
	4
	0
	4
	4
	9
	7
	0
	9
	4
	0
	4
	5
	0
	7
	4
	9
	0
	4
	4
	0
	4
	4
	0
	7
	4
	0
	4
	5
	0
	9
	7
	0
	9
	5
	5
	0
	9
	7
	1
	9
	0
	5
	9
	5
	7
	0
	9
	5
	9
	5
	7
	0
	9
	9
	9
	0
	7
	9
	0
	9
	9
	0
	7
	5
	9
	0
	5
	5
	9
	5
	3
	9
	5
	5
	9
	5
	7
	1
	4
	5
	0
	5
	9
	5
	7
	2
	5
	5
	0
	4
	7
	1
	5
	4
	1
	5
	7
	9
	1
	0
	1
	4
	7
	0
	5
	9
	0
	9
	7
	0
	4
	4
	0
	4
	7
	0
	4
	4
	0
	4
	7
	0
	4
	4
	0
	4
	7
	0
	9
	4
	4
	9
	7
	4
	0
	4
	9
	4
	4
	9
	4
	4
	3
	4
	4
	9
	4
	4
	3
	9
	9
	9
	5
	0
	3
	9
	5
	5
	0
	9
	7
	0
	9
	4
	9
	9
	7
	0
	9
	4
	9
	0
	7
	4
	9
	4
	4
	9
	7
	4
	9
	9
	9
	9
	7
	4
	9
	0
	4
	9
	7
	9
	0
	9
	9
	4
	9
	7
	0
	5
	9
	5
	9
	3
	0
	4
	1
	4
	5
	11
